c instance by G2
c solution = 11000
c Known solution cost is 226 
p cnf 5 30
w 6 36 85 72 27
-3 1 -4 0
3 1 5 0
4 2 5 0
1 3 -2 0
3 1 5 0
2 -4 5 0
-2 -4 -5 0
4 2 -1 0
-5 4 -2 0
2 -1 4 0
1 -5 -4 0
-4 5 2 0
1 -2 -3 0
5 3 -4 0
-4 1 3 0
3 -4 -5 0
-4 1 5 0
-5 3 -2 0
5 2 1 0
-1 -3 -2 0
-1 2 5 0
1 -4 -2 0
-3 5 -4 0
-1 -4 5 0
-4 -2 -5 0
-2 -3 5 0
2 1 4 0
-1 2 -3 0
1 5 3 0
-4 3 5 0
